10
0	40	20	51	73	66	98	76	34	70	
40	0	11	52	30	86	79	82	28	40	
20	11	0	48	61	2	23	46	49	45	
51	52	48	0	11	82	32	89	2	69	
73	30	61	11	0	48	3	87	3	67	
66	86	2	82	48	0	19	43	86	69	
98	79	23	32	3	19	0	84	23	39	
76	82	46	89	87	43	84	0	28	34	
34	28	49	2	3	86	23	28	0	65	
70	40	45	69	67	69	39	34	65	0	
